
Gurobi 12.0.0 (win64) logging started Mon May  4 20:49:27 2026

Set parameter LogFile to value "C:\Users\Asus\Documents\GitHub\logistics-model2\internal-logistics-model2\results\MR_MV_RD\case2\result_MR_MV_RD_case2_P5_R3_eps9999_2026_05_04_20_49.log"
Gurobi Optimizer version 12.0.0 build v12.0.0rc1 (win64 - Windows 10.0 (19045.2))

CPU model: 12th Gen Intel(R) Core(TM) i7-12650H, instruction set [SSE2|AVX|AVX2]
Thread count: 10 physical cores, 16 logical processors, using up to 16 threads

Non-default parameters:
TimeLimit  600
MIPGap  0.01
Presolve  2

Optimize a model with 24417 rows, 7277 columns and 122579 nonzeros
Model fingerprint: 0x61777f67
Variable types: 1157 continuous, 6120 integer (5895 binary)
Coefficient statistics:
  Matrix range     [1e+00, 5e+02]
  Objective range  [1e-03, 1e+00]
  Bounds range     [1e+00, 3e+01]
  RHS range        [1e+00, 1e+04]
Presolve removed 21423 rows and 6258 columns
Presolve time: 0.12s
Presolved: 2994 rows, 1019 columns, 16934 nonzeros
Variable types: 317 continuous, 702 integer (630 binary)
Root relaxation presolve removed 27 rows and 0 columns
Root relaxation presolved: 2967 rows, 1037 columns, 16765 nonzeros


Root relaxation: objective 0.000000e+00, 314 iterations, 0.02 seconds (0.03 work units)

    Nodes    |    Current Node    |     Objective Bounds      |     Work
 Expl Unexpl |  Obj  Depth IntInf | Incumbent    BestBd   Gap | It/Node Time

     0     0    0.00000    0   66          -    0.00000      -     -    0s
H    0     0                    32943.999000    0.00000   100%     -    0s
H    0     0                     190.0980000    0.00000   100%     -    0s
     0     0    0.00000    0   69  190.09800    0.00000   100%     -    0s
H    0     0                     158.1630000    0.00000   100%     -    0s
     0     0    0.00000    0   73  158.16300    0.00000   100%     -    0s
H    0     0                     153.1450000    0.00000   100%     -    0s
     0     0    0.00000    0   42  153.14500    0.00000   100%     -    0s
H    0     0                      86.1660000    0.00000   100%     -    0s
     0     0    0.00000    0   42   86.16600    0.00000   100%     -    0s
     0     0    0.00000    0   63   86.16600    0.00000   100%     -    0s
     0     0    0.00000    0   73   86.16600    0.00000   100%     -    0s
     0     0    0.00403    0   80   86.16600    0.00403   100%     -    0s
     0     0    0.00403    0   80   86.16600    0.00403   100%     -    0s
     0     0    0.00820    0   84   86.16600    0.00820   100%     -    0s
     0     0    0.00820    0   79   86.16600    0.00820   100%     -    0s
     0     0    0.01200    0   57   86.16600    0.01200   100%     -    0s
     0     0    0.01200    0   71   86.16600    0.01200   100%     -    0s
     0     0    0.01201    0  133   86.16600    0.01201   100%     -    0s
H    0     0                      84.1260000    0.01201   100%     -    0s
H    0     0                      83.1200000    0.01201   100%     -    0s
H    0     0                      80.1030000    0.01201   100%     -    0s
     0     0    0.01201    0  129   80.10300    0.01201   100%     -    0s
     0     0    0.01400    0   90   80.10300    0.01400   100%     -    0s
     0     0    0.01400    0   74   80.10300    0.01400   100%     -    0s
     0     0    0.01400    0   74   80.10300    0.01400   100%     -    0s
     0     0    0.01400    0   74   80.10300    0.01400   100%     -    0s
     0     0    0.01400    0   71   80.10300    0.01400   100%     -    1s
     0     0    0.01400    0   73   80.10300    0.01400   100%     -    1s
H    0     0                      80.0960000    0.01400   100%     -    1s
     0     0    0.01400    0   63   80.09600    0.01400   100%     -    1s
     0     0    0.01400    0   65   80.09600    0.01400   100%     -    1s
     0     0    0.01500    0   54   80.09600    0.01500   100%     -    1s
     0     0    0.01500    0   57   80.09600    0.01500   100%     -    1s
     0     0    0.01500    0   70   80.09600    0.01500   100%     -    1s
     0     0    0.01500    0   71   80.09600    0.01500   100%     -    1s
     0     0    0.01500    0   47   80.09600    0.01500   100%     -    1s
     0     0    0.01500    0   80   80.09600    0.01500   100%     -    1s
     0     0    0.01500    0   46   80.09600    0.01500   100%     -    1s
     0     0    0.01500    0   46   80.09600    0.01500   100%     -    1s
     0     2    0.01500    0   46   80.09600    0.01500   100%     -    2s
H   64    92                      73.0970000    0.01500   100%   143    2s
  2814  1170    0.96274   12   49   73.09700    0.01500   100%  40.1    5s
  5050  1147 infeasible   31        73.09700    0.01516   100%  63.1   10s
H 6081  1014                      72.0920000    0.01588   100%  62.8   11s
H 7404  1251                      71.0890000    0.02613   100%  61.9   11s
H 7678  1167                      67.0850000    0.03012   100%  61.6   11s
 11732  1714    0.07174   45   17   67.08500    0.04700   100%  58.3   15s
 18064  1523 infeasible   37        67.08500    1.17354  98.3%  53.2   20s
 24729   709     cutoff   42        67.08500   44.03863  34.4%  49.8   25s

Cutting planes:
  Learned: 32
  Gomory: 20
  Lift-and-project: 1
  Cover: 345
  Implied bound: 276
  Projected implied bound: 30
  Clique: 21
  MIR: 282
  Mixing: 2
  StrongCG: 8
  Flow cover: 1118
  Inf proof: 13
  Zero half: 27
  RLT: 92
  Relax-and-lift: 175
  PSD: 1

Explored 30772 nodes (1475346 simplex iterations) in 29.44 seconds (25.79 work units)
Thread count was 16 (of 16 available processors)

Solution count 10: 67.085 67.085 71.089 ... 86.166

Optimal solution found (tolerance 1.00e-02)
Best objective 6.708500000000e+01, best bound 6.708500000000e+01, gap 0.0000%
